
  12    4
  10   10   10   10

   0   0   0   0   0   2 2 4 
   9  10  10  10  10   3 11 5 3 
  10  10  10  10  10   3 9 8 6 
  10  10  10  10  10   2 10 6 
   4  10  10  10  10   1 7 
   8  10  10  10  10   1 12
   5  10  10  10  10   1 12
   6  10  10  10  10   1 12
   5  10  10  10  10   1 12
   9  10  10  10  10   1 12
   3  10  10  10  10   1 12
   0   0   0   0   0   0 
